\ Model Staff Scheduling Problem with Skill Levels
\ LP format - for model browsing. Use MPS format to capture full model detail.
Minimize
  x[0,0] + x[0,1] + x[0,2] + x[1,0] + x[1,1] + x[1,2] + x[2,0] + x[2,1]
   + x[2,2] + x[3,0] + x[3,1] + x[3,2] + x[4,0] + x[4,1] + x[4,2]
Subject To
 R0: x[0,0] <= 100
 R1: x[0,1] <= 100
 R2: x[0,2] <= 100
 R3: x[1,0] <= 100
 R4: x[1,1] <= 100
 R5: x[1,2] <= 100
 R6: x[2,0] <= 100
 R7: x[2,1] <= 100
 R8: x[2,2] <= 100
 R9: x[3,0] <= 100
 R10: x[3,1] <= 100
 R11: x[3,2] <= 100
 R12: x[4,0] <= 100
 R13: x[4,1] <= 100
 R14: x[4,2] <= 100
 R15: x[0,0] + x[0,1] + x[0,2] + x[1,0] + x[1,1] + x[1,2] + x[2,0] + x[2,1]
   + x[2,2] + x[3,0] + x[3,1] + x[3,2] + x[4,0] + x[4,1] + x[4,2]
   >= 7.249655586348059
 R16: x[0,0] + x[0,1] + x[0,2] + x[1,0] + x[1,1] + x[1,2] + x[2,0] + x[2,1]
   + x[2,2] + x[3,0] + x[3,1] + x[3,2] + x[4,0] + x[4,1] + x[4,2]
   >= 36.17714770288514
 R17: x[0,0] + x[0,1] + x[0,2] + x[1,0] + x[1,1] + x[1,2] + x[2,0] + x[2,1]
   + x[2,2] + x[3,0] + x[3,1] + x[3,2] + x[4,0] + x[4,1] + x[4,2]
   >= 7.249655586348059
 R18: x[0,0] + x[0,1] + x[0,2] + x[1,0] + x[1,1] + x[1,2] + x[2,0] + x[2,1]
   + x[2,2] + x[3,0] + x[3,1] + x[3,2] + x[4,0] + x[4,1] + x[4,2]
   >= 36.17714770288514
Bounds
End
